
%FILE DATA:	Soccer Computational Problem for MiniZinc Models	%
%AUTHOR:	Jack Wall	%
%CONTACT:  	116397063@umail.ucc.ie			%
%LAST UPDATE:	02/24/2020, 18:51:12						%
%DESCRIPTION: 	49 games played with 23 games left				%


n=9; %number of teams

%Games to play
games=[|5,9|8,1|3,7|9,6|3,1|3,6|1,2|6,4|1,8|4,2|3,9|3,8|1,7|7,5|5,2|7,6|7,8|5,6|7,3|9,4|1,9|1,3|9,3|];

%Initial points
iPoints=[6,24,11,16,12,21,11,22,15];

%POSITION CONSTRAINTS
% [|teamID, operator, position|...]
% operators index:
%  1 for =  operator
%  2 for >  operator
%  3 for >= operator
%  4 for <  operator
%  5 for <= operator
positionConstraints=[|8,3,1|2,2,1|6,4,4|4,4,5|3,3,5|9,3,6|];